p cnf 46 38
-1 16 36 0 
-2 28 36 0 
-3 5 17 36 0 
-4 27 -5 3 17 36 0 
-6 36 0 
-7 20 25 36 0 
-8 22 -9 12 14 34 36 0 
-10 -11 -12 9 14 34 36 0 
-13 36 0 
-14 9 12 34 36 0 
-15 36 0 
-11 -8 22 -16 1 -17 3 5 36 0 
-18 -19 36 0 
-20 7 25 37 0 
-4 27 36 0 
-4 27 -21 36 0 
-22 8 36 0 
-23 38 0 
-24 39 0 
-23 40 0 
-25 7 20 37 0 
-2 28 -26 36 0 
-24 40 0 
-24 41 0 
-24 42 0 
-23 -27 4 43 0 
-23 -28 2 -29 32 41 0 
-23 43 0 
-23 44 0 
-23 39 0 
-23 -28 2 -27 4 42 0 
-23 -30 -29 32 42 0 
-31 45 -23 0 
-32 29 46 0 
-33 36 0 
-2 28 -16 1 -26 36 0 
-34 9 12 14 36 0 
-35 36 0 
